Instance0
Gap



17.28%
15.27%
13.30%
12.50%
6.78%
6.78%
6.78%
6.31%
6.03%
6.01%
5.45%
4.68%
3.84%
3.56%
3.23%
3.00%
2.96%
2.95%
2.93%
2.10%
0.72%
0.72%
0.00%
CPXPARAM_MIP_Cuts_CPXPARAM_MIP_Cuts_Gomory-CPXPARAM_MIP_Cuts_Disjunctive-CPXPARAM_MIP_Cuts_LiftProj-CPXPARAM_MIP_Cuts_Covers-CPXPARAM_MIP_Cuts_FlowCovers 0
Instance1
CPXPARAM_MIP_Cuts_CPXPARAM_MIP_Cuts_Gomory-CPXPARAM_MIP_Cuts_Disjunctive-CPXPARAM_MIP_Cuts_LiftProj-CPXPARAM_MIP_Cuts_Covers-CPXPARAM_MIP_Cuts_FlowCovers 0
Instance2
CPXPARAM_MIP_Cuts_CPXPARAM_MIP_Cuts_Gomory-CPXPARAM_MIP_Cuts_Disjunctive-CPXPARAM_MIP_Cuts_LiftProj-CPXPARAM_MIP_Cuts_Covers-CPXPARAM_MIP_Cuts_FlowCovers 8
Instance3
CPXPARAM_MIP_Cuts_CPXPARAM_MIP_Cuts_Gomory-CPXPARAM_MIP_Cuts_Disjunctive-CPXPARAM_MIP_Cuts_LiftProj-CPXPARAM_MIP_Cuts_Covers-CPXPARAM_MIP_Cuts_FlowCovers 0
Instance4
CPXPARAM_MIP_Cuts_CPXPARAM_MIP_Cuts_Gomory-CPXPARAM_MIP_Cuts_Disjunctive-CPXPARAM_MIP_Cuts_LiftProj-CPXPARAM_MIP_Cuts_Covers-CPXPARAM_MIP_Cuts_FlowCovers 0
Instance5
Gap



67.95%
64.60%
58.47%
54.00%
53.30%
53.13%
52.48%
52.43%
52.38%
52.30%
51.87%
50.66%
49.99%
49.97%
49.92%
CPXPARAM_MIP_Cuts_CPXPARAM_MIP_Cuts_Gomory-CPXPARAM_MIP_Cuts_Disjunctive-CPXPARAM_MIP_Cuts_LiftProj-CPXPARAM_MIP_Cuts_Covers-CPXPARAM_MIP_Cuts_FlowCovers 0
Instance6
CPXPARAM_MIP_Cuts_CPXPARAM_MIP_Cuts_Gomory-CPXPARAM_MIP_Cuts_Disjunctive-CPXPARAM_MIP_Cuts_LiftProj-CPXPARAM_MIP_Cuts_Covers-CPXPARAM_MIP_Cuts_FlowCovers 0
Instance7
CPXPARAM_MIP_Cuts_CPXPARAM_MIP_Cuts_Gomory-CPXPARAM_MIP_Cuts_Disjunctive-CPXPARAM_MIP_Cuts_LiftProj-CPXPARAM_MIP_Cuts_Covers-CPXPARAM_MIP_Cuts_FlowCovers 7
Instance8
CPXPARAM_MIP_Cuts_CPXPARAM_MIP_Cuts_Gomory-CPXPARAM_MIP_Cuts_Disjunctive-CPXPARAM_MIP_Cuts_LiftProj-CPXPARAM_MIP_Cuts_Covers-CPXPARAM_MIP_Cuts_FlowCovers 0
Instance9
CPXPARAM_MIP_Cuts_CPXPARAM_MIP_Cuts_Gomory-CPXPARAM_MIP_Cuts_Disjunctive-CPXPARAM_MIP_Cuts_LiftProj-CPXPARAM_MIP_Cuts_Covers-CPXPARAM_MIP_Cuts_FlowCovers 2
Instance10
Gap


0.35%
0.35%
0.35%
0.35%
0.32%
0
CPXPARAM_MIP_Cuts_CPXPARAM_MIP_Cuts_Gomory-CPXPARAM_MIP_Cuts_Disjunctive-CPXPARAM_MIP_Cuts_LiftProj-CPXPARAM_MIP_Cuts_Covers-CPXPARAM_MIP_Cuts_FlowCovers 0
Instance11
CPXPARAM_MIP_Cuts_CPXPARAM_MIP_Cuts_Gomory-CPXPARAM_MIP_Cuts_Disjunctive-CPXPARAM_MIP_Cuts_LiftProj-CPXPARAM_MIP_Cuts_Covers-CPXPARAM_MIP_Cuts_FlowCovers 0
Instance12
CPXPARAM_MIP_Cuts_CPXPARAM_MIP_Cuts_Gomory-CPXPARAM_MIP_Cuts_Disjunctive-CPXPARAM_MIP_Cuts_LiftProj-CPXPARAM_MIP_Cuts_Covers-CPXPARAM_MIP_Cuts_FlowCovers 0
Instance13
CPXPARAM_MIP_Cuts_CPXPARAM_MIP_Cuts_Gomory-CPXPARAM_MIP_Cuts_Disjunctive-CPXPARAM_MIP_Cuts_LiftProj-CPXPARAM_MIP_Cuts_Covers-CPXPARAM_MIP_Cuts_FlowCovers 0
Instance14
CPXPARAM_MIP_Cuts_CPXPARAM_MIP_Cuts_Gomory-CPXPARAM_MIP_Cuts_Disjunctive-CPXPARAM_MIP_Cuts_LiftProj-CPXPARAM_MIP_Cuts_Covers-CPXPARAM_MIP_Cuts_FlowCovers 0
Instance15
Gap

0.00%
0
CPXPARAM_MIP_Cuts_CPXPARAM_MIP_Cuts_Gomory-CPXPARAM_MIP_Cuts_Disjunctive-CPXPARAM_MIP_Cuts_LiftProj-CPXPARAM_MIP_Cuts_Covers-CPXPARAM_MIP_Cuts_FlowCovers 0
Instance16
CPXPARAM_MIP_Cuts_CPXPARAM_MIP_Cuts_Gomory-CPXPARAM_MIP_Cuts_Disjunctive-CPXPARAM_MIP_Cuts_LiftProj-CPXPARAM_MIP_Cuts_Covers-CPXPARAM_MIP_Cuts_FlowCovers 0
Instance17
CPXPARAM_MIP_Cuts_CPXPARAM_MIP_Cuts_Gomory-CPXPARAM_MIP_Cuts_Disjunctive-CPXPARAM_MIP_Cuts_LiftProj-CPXPARAM_MIP_Cuts_Covers-CPXPARAM_MIP_Cuts_FlowCovers 0
Instance18
CPXPARAM_MIP_Cuts_CPXPARAM_MIP_Cuts_Gomory-CPXPARAM_MIP_Cuts_Disjunctive-CPXPARAM_MIP_Cuts_LiftProj-CPXPARAM_MIP_Cuts_Covers-CPXPARAM_MIP_Cuts_FlowCovers 0
Instance19
CPXPARAM_MIP_Cuts_CPXPARAM_MIP_Cuts_Gomory-CPXPARAM_MIP_Cuts_Disjunctive-CPXPARAM_MIP_Cuts_LiftProj-CPXPARAM_MIP_Cuts_Covers-CPXPARAM_MIP_Cuts_FlowCovers 0
Instance20
Gap



5.55%
5.55%
5.55%
4.96%
4.79%
4.70%
4.27%
4.11%
4.09%
3.85%
3.79%
3.74%
3.53%
3.42%
3.30%
3.11%
2.76%
2.75%
2.68%
2.66%
2.51%
2.47%
2.46%
2.41%
2.24%
2.22%
0
CPXPARAM_MIP_Cuts_CPXPARAM_MIP_Cuts_Gomory-CPXPARAM_MIP_Cuts_Disjunctive-CPXPARAM_MIP_Cuts_LiftProj-CPXPARAM_MIP_Cuts_Covers-CPXPARAM_MIP_Cuts_FlowCovers 0
Instance21
CPXPARAM_MIP_Cuts_CPXPARAM_MIP_Cuts_Gomory-CPXPARAM_MIP_Cuts_Disjunctive-CPXPARAM_MIP_Cuts_LiftProj-CPXPARAM_MIP_Cuts_Covers-CPXPARAM_MIP_Cuts_FlowCovers 0
Instance22
CPXPARAM_MIP_Cuts_CPXPARAM_MIP_Cuts_Gomory-CPXPARAM_MIP_Cuts_Disjunctive-CPXPARAM_MIP_Cuts_LiftProj-CPXPARAM_MIP_Cuts_Covers-CPXPARAM_MIP_Cuts_FlowCovers 15
Instance23
CPXPARAM_MIP_Cuts_CPXPARAM_MIP_Cuts_Gomory-CPXPARAM_MIP_Cuts_Disjunctive-CPXPARAM_MIP_Cuts_LiftProj-CPXPARAM_MIP_Cuts_Covers-CPXPARAM_MIP_Cuts_FlowCovers 0
Instance24
CPXPARAM_MIP_Cuts_CPXPARAM_MIP_Cuts_Gomory-CPXPARAM_MIP_Cuts_Disjunctive-CPXPARAM_MIP_Cuts_LiftProj-CPXPARAM_MIP_Cuts_Covers-CPXPARAM_MIP_Cuts_FlowCovers 0
Instance25
Gap



74.89%
63.89%
60.37%
55.32%
55.22%
55.01%
54.29%
51.92%
47.21%
45.30%
44.86%
44.39%
42.63%
38.45%
38.24%
38.18%
37.90%
37.38%
36.92%
36.89%
36.59%
36.48%
36.45%
36.20%
36.13%
36.13%
36.03%
35.97%
35.92%
35.74%
35.74%
32.11%
CPXPARAM_MIP_Cuts_CPXPARAM_MIP_Cuts_Gomory-CPXPARAM_MIP_Cuts_Disjunctive-CPXPARAM_MIP_Cuts_LiftProj-CPXPARAM_MIP_Cuts_Covers-CPXPARAM_MIP_Cuts_FlowCovers 0
Instance26
CPXPARAM_MIP_Cuts_CPXPARAM_MIP_Cuts_Gomory-CPXPARAM_MIP_Cuts_Disjunctive-CPXPARAM_MIP_Cuts_LiftProj-CPXPARAM_MIP_Cuts_Covers-CPXPARAM_MIP_Cuts_FlowCovers 0
Instance27
CPXPARAM_MIP_Cuts_CPXPARAM_MIP_Cuts_Gomory-CPXPARAM_MIP_Cuts_Disjunctive-CPXPARAM_MIP_Cuts_LiftProj-CPXPARAM_MIP_Cuts_Covers-CPXPARAM_MIP_Cuts_FlowCovers 15
Instance28
CPXPARAM_MIP_Cuts_CPXPARAM_MIP_Cuts_Gomory-CPXPARAM_MIP_Cuts_Disjunctive-CPXPARAM_MIP_Cuts_LiftProj-CPXPARAM_MIP_Cuts_Covers-CPXPARAM_MIP_Cuts_FlowCovers 0
Instance29
CPXPARAM_MIP_Cuts_CPXPARAM_MIP_Cuts_Gomory-CPXPARAM_MIP_Cuts_Disjunctive-CPXPARAM_MIP_Cuts_LiftProj-CPXPARAM_MIP_Cuts_Covers-CPXPARAM_MIP_Cuts_FlowCovers 1
Instance30
Gap
111.50%
92.96%
92.96%
92.96%
CPXPARAM_MIP_Cuts_CPXPARAM_MIP_Cuts_Gomory-CPXPARAM_MIP_Cuts_Disjunctive-CPXPARAM_MIP_Cuts_LiftProj-CPXPARAM_MIP_Cuts_Covers-CPXPARAM_MIP_Cuts_FlowCovers 0
Instance31
CPXPARAM_MIP_Cuts_CPXPARAM_MIP_Cuts_Gomory-CPXPARAM_MIP_Cuts_Disjunctive-CPXPARAM_MIP_Cuts_LiftProj-CPXPARAM_MIP_Cuts_Covers-CPXPARAM_MIP_Cuts_FlowCovers 0
Instance32
CPXPARAM_MIP_Cuts_CPXPARAM_MIP_Cuts_Gomory-CPXPARAM_MIP_Cuts_Disjunctive-CPXPARAM_MIP_Cuts_LiftProj-CPXPARAM_MIP_Cuts_Covers-CPXPARAM_MIP_Cuts_FlowCovers 0
Instance33
CPXPARAM_MIP_Cuts_CPXPARAM_MIP_Cuts_Gomory-CPXPARAM_MIP_Cuts_Disjunctive-CPXPARAM_MIP_Cuts_LiftProj-CPXPARAM_MIP_Cuts_Covers-CPXPARAM_MIP_Cuts_FlowCovers 0
Instance34
CPXPARAM_MIP_Cuts_CPXPARAM_MIP_Cuts_Gomory-CPXPARAM_MIP_Cuts_Disjunctive-CPXPARAM_MIP_Cuts_LiftProj-CPXPARAM_MIP_Cuts_Covers-CPXPARAM_MIP_Cuts_FlowCovers 1
Instance35
Gap

23.59%
23.59%
23.59%
23.59%
23.19%
17.29%
12.33%
9.86%
1.52%
0
CPXPARAM_MIP_Cuts_CPXPARAM_MIP_Cuts_Gomory-CPXPARAM_MIP_Cuts_Disjunctive-CPXPARAM_MIP_Cuts_LiftProj-CPXPARAM_MIP_Cuts_Covers-CPXPARAM_MIP_Cuts_FlowCovers 0
Instance36
CPXPARAM_MIP_Cuts_CPXPARAM_MIP_Cuts_Gomory-CPXPARAM_MIP_Cuts_Disjunctive-CPXPARAM_MIP_Cuts_LiftProj-CPXPARAM_MIP_Cuts_Covers-CPXPARAM_MIP_Cuts_FlowCovers 0
Instance37
CPXPARAM_MIP_Cuts_CPXPARAM_MIP_Cuts_Gomory-CPXPARAM_MIP_Cuts_Disjunctive-CPXPARAM_MIP_Cuts_LiftProj-CPXPARAM_MIP_Cuts_Covers-CPXPARAM_MIP_Cuts_FlowCovers 2
Instance38
CPXPARAM_MIP_Cuts_CPXPARAM_MIP_Cuts_Gomory-CPXPARAM_MIP_Cuts_Disjunctive-CPXPARAM_MIP_Cuts_LiftProj-CPXPARAM_MIP_Cuts_Covers-CPXPARAM_MIP_Cuts_FlowCovers 3
Instance39
CPXPARAM_MIP_Cuts_CPXPARAM_MIP_Cuts_Gomory-CPXPARAM_MIP_Cuts_Disjunctive-CPXPARAM_MIP_Cuts_LiftProj-CPXPARAM_MIP_Cuts_Covers-CPXPARAM_MIP_Cuts_FlowCovers 0
Instance40
Gap






2.20%
2.20%
2.20%
2.19%
2.15%
2.14%
2.13%
2.12%
2.08%
2.08%
2.06%
1.57%
1.20%
0.96%
0.82%
0.16%
0.16%
0
CPXPARAM_MIP_Cuts_CPXPARAM_MIP_Cuts_Gomory-CPXPARAM_MIP_Cuts_Disjunctive-CPXPARAM_MIP_Cuts_LiftProj-CPXPARAM_MIP_Cuts_Covers-CPXPARAM_MIP_Cuts_FlowCovers 0
Instance41
CPXPARAM_MIP_Cuts_CPXPARAM_MIP_Cuts_Gomory-CPXPARAM_MIP_Cuts_Disjunctive-CPXPARAM_MIP_Cuts_LiftProj-CPXPARAM_MIP_Cuts_Covers-CPXPARAM_MIP_Cuts_FlowCovers 0
Instance42
CPXPARAM_MIP_Cuts_CPXPARAM_MIP_Cuts_Gomory-CPXPARAM_MIP_Cuts_Disjunctive-CPXPARAM_MIP_Cuts_LiftProj-CPXPARAM_MIP_Cuts_Covers-CPXPARAM_MIP_Cuts_FlowCovers 3
Instance43
CPXPARAM_MIP_Cuts_CPXPARAM_MIP_Cuts_Gomory-CPXPARAM_MIP_Cuts_Disjunctive-CPXPARAM_MIP_Cuts_LiftProj-CPXPARAM_MIP_Cuts_Covers-CPXPARAM_MIP_Cuts_FlowCovers 0
Instance44
CPXPARAM_MIP_Cuts_CPXPARAM_MIP_Cuts_Gomory-CPXPARAM_MIP_Cuts_Disjunctive-CPXPARAM_MIP_Cuts_LiftProj-CPXPARAM_MIP_Cuts_Covers-CPXPARAM_MIP_Cuts_FlowCovers 0
Instance45
Gap


























0
CPXPARAM_MIP_Cuts_CPXPARAM_MIP_Cuts_Gomory-CPXPARAM_MIP_Cuts_Disjunctive-CPXPARAM_MIP_Cuts_LiftProj-CPXPARAM_MIP_Cuts_Covers-CPXPARAM_MIP_Cuts_FlowCovers 0
Instance46
CPXPARAM_MIP_Cuts_CPXPARAM_MIP_Cuts_Gomory-CPXPARAM_MIP_Cuts_Disjunctive-CPXPARAM_MIP_Cuts_LiftProj-CPXPARAM_MIP_Cuts_Covers-CPXPARAM_MIP_Cuts_FlowCovers 0
Instance47
CPXPARAM_MIP_Cuts_CPXPARAM_MIP_Cuts_Gomory-CPXPARAM_MIP_Cuts_Disjunctive-CPXPARAM_MIP_Cuts_LiftProj-CPXPARAM_MIP_Cuts_Covers-CPXPARAM_MIP_Cuts_FlowCovers 20
Instance48
CPXPARAM_MIP_Cuts_CPXPARAM_MIP_Cuts_Gomory-CPXPARAM_MIP_Cuts_Disjunctive-CPXPARAM_MIP_Cuts_LiftProj-CPXPARAM_MIP_Cuts_Covers-CPXPARAM_MIP_Cuts_FlowCovers 0
Instance49
CPXPARAM_MIP_Cuts_CPXPARAM_MIP_Cuts_Gomory-CPXPARAM_MIP_Cuts_Disjunctive-CPXPARAM_MIP_Cuts_LiftProj-CPXPARAM_MIP_Cuts_Covers-CPXPARAM_MIP_Cuts_FlowCovers 0
Instance50
Gap

0.01%
CPXPARAM_MIP_Cuts_CPXPARAM_MIP_Cuts_Gomory-CPXPARAM_MIP_Cuts_Disjunctive-CPXPARAM_MIP_Cuts_LiftProj-CPXPARAM_MIP_Cuts_Covers-CPXPARAM_MIP_Cuts_FlowCovers 0
Instance51
CPXPARAM_MIP_Cuts_CPXPARAM_MIP_Cuts_Gomory-CPXPARAM_MIP_Cuts_Disjunctive-CPXPARAM_MIP_Cuts_LiftProj-CPXPARAM_MIP_Cuts_Covers-CPXPARAM_MIP_Cuts_FlowCovers 0
Instance52
CPXPARAM_MIP_Cuts_CPXPARAM_MIP_Cuts_Gomory-CPXPARAM_MIP_Cuts_Disjunctive-CPXPARAM_MIP_Cuts_LiftProj-CPXPARAM_MIP_Cuts_Covers-CPXPARAM_MIP_Cuts_FlowCovers 0
Instance53
CPXPARAM_MIP_Cuts_CPXPARAM_MIP_Cuts_Gomory-CPXPARAM_MIP_Cuts_Disjunctive-CPXPARAM_MIP_Cuts_LiftProj-CPXPARAM_MIP_Cuts_Covers-CPXPARAM_MIP_Cuts_FlowCovers 0
Instance54
CPXPARAM_MIP_Cuts_CPXPARAM_MIP_Cuts_Gomory-CPXPARAM_MIP_Cuts_Disjunctive-CPXPARAM_MIP_Cuts_LiftProj-CPXPARAM_MIP_Cuts_Covers-CPXPARAM_MIP_Cuts_FlowCovers 0
Instance55
Gap

0.02%
0.02%
0.02%
0
CPXPARAM_MIP_Cuts_CPXPARAM_MIP_Cuts_Gomory-CPXPARAM_MIP_Cuts_Disjunctive-CPXPARAM_MIP_Cuts_LiftProj-CPXPARAM_MIP_Cuts_Covers-CPXPARAM_MIP_Cuts_FlowCovers 0
Instance56
CPXPARAM_MIP_Cuts_CPXPARAM_MIP_Cuts_Gomory-CPXPARAM_MIP_Cuts_Disjunctive-CPXPARAM_MIP_Cuts_LiftProj-CPXPARAM_MIP_Cuts_Covers-CPXPARAM_MIP_Cuts_FlowCovers 0
Instance57
CPXPARAM_MIP_Cuts_CPXPARAM_MIP_Cuts_Gomory-CPXPARAM_MIP_Cuts_Disjunctive-CPXPARAM_MIP_Cuts_LiftProj-CPXPARAM_MIP_Cuts_Covers-CPXPARAM_MIP_Cuts_FlowCovers 0
Instance58
CPXPARAM_MIP_Cuts_CPXPARAM_MIP_Cuts_Gomory-CPXPARAM_MIP_Cuts_Disjunctive-CPXPARAM_MIP_Cuts_LiftProj-CPXPARAM_MIP_Cuts_Covers-CPXPARAM_MIP_Cuts_FlowCovers 0
Instance59
CPXPARAM_MIP_Cuts_CPXPARAM_MIP_Cuts_Gomory-CPXPARAM_MIP_Cuts_Disjunctive-CPXPARAM_MIP_Cuts_LiftProj-CPXPARAM_MIP_Cuts_Covers-CPXPARAM_MIP_Cuts_FlowCovers 0
Instance60
Gap





















16.61%
16.42%
CPXPARAM_MIP_Cuts_CPXPARAM_MIP_Cuts_Gomory-CPXPARAM_MIP_Cuts_Disjunctive-CPXPARAM_MIP_Cuts_LiftProj-CPXPARAM_MIP_Cuts_Covers-CPXPARAM_MIP_Cuts_FlowCovers 1
Instance61
CPXPARAM_MIP_Cuts_CPXPARAM_MIP_Cuts_Gomory-CPXPARAM_MIP_Cuts_Disjunctive-CPXPARAM_MIP_Cuts_LiftProj-CPXPARAM_MIP_Cuts_Covers-CPXPARAM_MIP_Cuts_FlowCovers 0
Instance62
CPXPARAM_MIP_Cuts_CPXPARAM_MIP_Cuts_Gomory-CPXPARAM_MIP_Cuts_Disjunctive-CPXPARAM_MIP_Cuts_LiftProj-CPXPARAM_MIP_Cuts_Covers-CPXPARAM_MIP_Cuts_FlowCovers 12
Instance63
CPXPARAM_MIP_Cuts_CPXPARAM_MIP_Cuts_Gomory-CPXPARAM_MIP_Cuts_Disjunctive-CPXPARAM_MIP_Cuts_LiftProj-CPXPARAM_MIP_Cuts_Covers-CPXPARAM_MIP_Cuts_FlowCovers 0
Instance64
CPXPARAM_MIP_Cuts_CPXPARAM_MIP_Cuts_Gomory-CPXPARAM_MIP_Cuts_Disjunctive-CPXPARAM_MIP_Cuts_LiftProj-CPXPARAM_MIP_Cuts_Covers-CPXPARAM_MIP_Cuts_FlowCovers 4
Instance65
Gap

37.35%
36.84%
34.72%
30.80%
27.58%
26.43%
26.36%
25.78%
25.24%
25.18%
24.72%
24.27%
24.14%
23.84%
23.55%
23.05%
22.94%
21.84%
21.81%
21.60%
21.35%
21.33%
21.23%
21.04%
CPXPARAM_MIP_Cuts_CPXPARAM_MIP_Cuts_Gomory-CPXPARAM_MIP_Cuts_Disjunctive-CPXPARAM_MIP_Cuts_LiftProj-CPXPARAM_MIP_Cuts_Covers-CPXPARAM_MIP_Cuts_FlowCovers 0
Instance66
CPXPARAM_MIP_Cuts_CPXPARAM_MIP_Cuts_Gomory-CPXPARAM_MIP_Cuts_Disjunctive-CPXPARAM_MIP_Cuts_LiftProj-CPXPARAM_MIP_Cuts_Covers-CPXPARAM_MIP_Cuts_FlowCovers 0
Instance67
CPXPARAM_MIP_Cuts_CPXPARAM_MIP_Cuts_Gomory-CPXPARAM_MIP_Cuts_Disjunctive-CPXPARAM_MIP_Cuts_LiftProj-CPXPARAM_MIP_Cuts_Covers-CPXPARAM_MIP_Cuts_FlowCovers 13
Instance68
CPXPARAM_MIP_Cuts_CPXPARAM_MIP_Cuts_Gomory-CPXPARAM_MIP_Cuts_Disjunctive-CPXPARAM_MIP_Cuts_LiftProj-CPXPARAM_MIP_Cuts_Covers-CPXPARAM_MIP_Cuts_FlowCovers 0
Instance69
CPXPARAM_MIP_Cuts_CPXPARAM_MIP_Cuts_Gomory-CPXPARAM_MIP_Cuts_Disjunctive-CPXPARAM_MIP_Cuts_LiftProj-CPXPARAM_MIP_Cuts_Covers-CPXPARAM_MIP_Cuts_FlowCovers 1
Instance70
Gap

1.86%
1.86%
1.86%
1.86%
0
CPXPARAM_MIP_Cuts_CPXPARAM_MIP_Cuts_Gomory-CPXPARAM_MIP_Cuts_Disjunctive-CPXPARAM_MIP_Cuts_LiftProj-CPXPARAM_MIP_Cuts_Covers-CPXPARAM_MIP_Cuts_FlowCovers 0
Instance71
CPXPARAM_MIP_Cuts_CPXPARAM_MIP_Cuts_Gomory-CPXPARAM_MIP_Cuts_Disjunctive-CPXPARAM_MIP_Cuts_LiftProj-CPXPARAM_MIP_Cuts_Covers-CPXPARAM_MIP_Cuts_FlowCovers 0
Instance72
CPXPARAM_MIP_Cuts_CPXPARAM_MIP_Cuts_Gomory-CPXPARAM_MIP_Cuts_Disjunctive-CPXPARAM_MIP_Cuts_LiftProj-CPXPARAM_MIP_Cuts_Covers-CPXPARAM_MIP_Cuts_FlowCovers 0
Instance73
CPXPARAM_MIP_Cuts_CPXPARAM_MIP_Cuts_Gomory-CPXPARAM_MIP_Cuts_Disjunctive-CPXPARAM_MIP_Cuts_LiftProj-CPXPARAM_MIP_Cuts_Covers-CPXPARAM_MIP_Cuts_FlowCovers 0
Instance74
CPXPARAM_MIP_Cuts_CPXPARAM_MIP_Cuts_Gomory-CPXPARAM_MIP_Cuts_Disjunctive-CPXPARAM_MIP_Cuts_LiftProj-CPXPARAM_MIP_Cuts_Covers-CPXPARAM_MIP_Cuts_FlowCovers 1
Instance75
Gap
112.51%
98.57%
98.57%
29.55%
29.55%
29.55%
CPXPARAM_MIP_Cuts_CPXPARAM_MIP_Cuts_Gomory-CPXPARAM_MIP_Cuts_Disjunctive-CPXPARAM_MIP_Cuts_LiftProj-CPXPARAM_MIP_Cuts_Covers-CPXPARAM_MIP_Cuts_FlowCovers 0
Instance76
CPXPARAM_MIP_Cuts_CPXPARAM_MIP_Cuts_Gomory-CPXPARAM_MIP_Cuts_Disjunctive-CPXPARAM_MIP_Cuts_LiftProj-CPXPARAM_MIP_Cuts_Covers-CPXPARAM_MIP_Cuts_FlowCovers 0
Instance77
CPXPARAM_MIP_Cuts_CPXPARAM_MIP_Cuts_Gomory-CPXPARAM_MIP_Cuts_Disjunctive-CPXPARAM_MIP_Cuts_LiftProj-CPXPARAM_MIP_Cuts_Covers-CPXPARAM_MIP_Cuts_FlowCovers 0
Instance78
CPXPARAM_MIP_Cuts_CPXPARAM_MIP_Cuts_Gomory-CPXPARAM_MIP_Cuts_Disjunctive-CPXPARAM_MIP_Cuts_LiftProj-CPXPARAM_MIP_Cuts_Covers-CPXPARAM_MIP_Cuts_FlowCovers 2
Instance79
CPXPARAM_MIP_Cuts_CPXPARAM_MIP_Cuts_Gomory-CPXPARAM_MIP_Cuts_Disjunctive-CPXPARAM_MIP_Cuts_LiftProj-CPXPARAM_MIP_Cuts_Covers-CPXPARAM_MIP_Cuts_FlowCovers 2
Instance80
Gap



1.76%
1.76%
1.76%
1.49%
1.40%
1.31%
1.27%
1.22%
1.22%
1.22%
0.00%
CPXPARAM_MIP_Cuts_CPXPARAM_MIP_Cuts_Gomory-CPXPARAM_MIP_Cuts_Disjunctive-CPXPARAM_MIP_Cuts_LiftProj-CPXPARAM_MIP_Cuts_Covers-CPXPARAM_MIP_Cuts_FlowCovers 0
Instance81
CPXPARAM_MIP_Cuts_CPXPARAM_MIP_Cuts_Gomory-CPXPARAM_MIP_Cuts_Disjunctive-CPXPARAM_MIP_Cuts_LiftProj-CPXPARAM_MIP_Cuts_Covers-CPXPARAM_MIP_Cuts_FlowCovers 0
Instance82
CPXPARAM_MIP_Cuts_CPXPARAM_MIP_Cuts_Gomory-CPXPARAM_MIP_Cuts_Disjunctive-CPXPARAM_MIP_Cuts_LiftProj-CPXPARAM_MIP_Cuts_Covers-CPXPARAM_MIP_Cuts_FlowCovers 4
Instance83
CPXPARAM_MIP_Cuts_CPXPARAM_MIP_Cuts_Gomory-CPXPARAM_MIP_Cuts_Disjunctive-CPXPARAM_MIP_Cuts_LiftProj-CPXPARAM_MIP_Cuts_Covers-CPXPARAM_MIP_Cuts_FlowCovers 1
Instance84
CPXPARAM_MIP_Cuts_CPXPARAM_MIP_Cuts_Gomory-CPXPARAM_MIP_Cuts_Disjunctive-CPXPARAM_MIP_Cuts_LiftProj-CPXPARAM_MIP_Cuts_Covers-CPXPARAM_MIP_Cuts_FlowCovers 2
Instance85
Gap



46.43%
42.93%
41.79%
41.08%
40.59%
40.42%
40.34%
40.23%
40.16%
40.14%
40.09%
40.07%
38.92%
38.91%
38.83%
38.70%
38.64%
37.94%
CPXPARAM_MIP_Cuts_CPXPARAM_MIP_Cuts_Gomory-CPXPARAM_MIP_Cuts_Disjunctive-CPXPARAM_MIP_Cuts_LiftProj-CPXPARAM_MIP_Cuts_Covers-CPXPARAM_MIP_Cuts_FlowCovers 0
Instance86
CPXPARAM_MIP_Cuts_CPXPARAM_MIP_Cuts_Gomory-CPXPARAM_MIP_Cuts_Disjunctive-CPXPARAM_MIP_Cuts_LiftProj-CPXPARAM_MIP_Cuts_Covers-CPXPARAM_MIP_Cuts_FlowCovers 0
Instance87
CPXPARAM_MIP_Cuts_CPXPARAM_MIP_Cuts_Gomory-CPXPARAM_MIP_Cuts_Disjunctive-CPXPARAM_MIP_Cuts_LiftProj-CPXPARAM_MIP_Cuts_Covers-CPXPARAM_MIP_Cuts_FlowCovers 9
Instance88
CPXPARAM_MIP_Cuts_CPXPARAM_MIP_Cuts_Gomory-CPXPARAM_MIP_Cuts_Disjunctive-CPXPARAM_MIP_Cuts_LiftProj-CPXPARAM_MIP_Cuts_Covers-CPXPARAM_MIP_Cuts_FlowCovers 1
Instance89
CPXPARAM_MIP_Cuts_CPXPARAM_MIP_Cuts_Gomory-CPXPARAM_MIP_Cuts_Disjunctive-CPXPARAM_MIP_Cuts_LiftProj-CPXPARAM_MIP_Cuts_Covers-CPXPARAM_MIP_Cuts_FlowCovers 2
Instance90
Gap
110.91%
93.14%
93.14%
0.05%
0.05%
0.05%
0
CPXPARAM_MIP_Cuts_CPXPARAM_MIP_Cuts_Gomory-CPXPARAM_MIP_Cuts_Disjunctive-CPXPARAM_MIP_Cuts_LiftProj-CPXPARAM_MIP_Cuts_Covers-CPXPARAM_MIP_Cuts_FlowCovers 0
Instance91
CPXPARAM_MIP_Cuts_CPXPARAM_MIP_Cuts_Gomory-CPXPARAM_MIP_Cuts_Disjunctive-CPXPARAM_MIP_Cuts_LiftProj-CPXPARAM_MIP_Cuts_Covers-CPXPARAM_MIP_Cuts_FlowCovers 0
Instance92
CPXPARAM_MIP_Cuts_CPXPARAM_MIP_Cuts_Gomory-CPXPARAM_MIP_Cuts_Disjunctive-CPXPARAM_MIP_Cuts_LiftProj-CPXPARAM_MIP_Cuts_Covers-CPXPARAM_MIP_Cuts_FlowCovers 1
Instance93
CPXPARAM_MIP_Cuts_CPXPARAM_MIP_Cuts_Gomory-CPXPARAM_MIP_Cuts_Disjunctive-CPXPARAM_MIP_Cuts_LiftProj-CPXPARAM_MIP_Cuts_Covers-CPXPARAM_MIP_Cuts_FlowCovers 2
Instance94
CPXPARAM_MIP_Cuts_CPXPARAM_MIP_Cuts_Gomory-CPXPARAM_MIP_Cuts_Disjunctive-CPXPARAM_MIP_Cuts_LiftProj-CPXPARAM_MIP_Cuts_Covers-CPXPARAM_MIP_Cuts_FlowCovers 2
Instance95
Gap
114.31%
97.72%
97.72%
1.26%
1.26%
1.26%
1.26%
1.26%
0.93%
CPXPARAM_MIP_Cuts_CPXPARAM_MIP_Cuts_Gomory-CPXPARAM_MIP_Cuts_Disjunctive-CPXPARAM_MIP_Cuts_LiftProj-CPXPARAM_MIP_Cuts_Covers-CPXPARAM_MIP_Cuts_FlowCovers 0
Instance96
CPXPARAM_MIP_Cuts_CPXPARAM_MIP_Cuts_Gomory-CPXPARAM_MIP_Cuts_Disjunctive-CPXPARAM_MIP_Cuts_LiftProj-CPXPARAM_MIP_Cuts_Covers-CPXPARAM_MIP_Cuts_FlowCovers 0
Instance97
CPXPARAM_MIP_Cuts_CPXPARAM_MIP_Cuts_Gomory-CPXPARAM_MIP_Cuts_Disjunctive-CPXPARAM_MIP_Cuts_LiftProj-CPXPARAM_MIP_Cuts_Covers-CPXPARAM_MIP_Cuts_FlowCovers 0
Instance98
CPXPARAM_MIP_Cuts_CPXPARAM_MIP_Cuts_Gomory-CPXPARAM_MIP_Cuts_Disjunctive-CPXPARAM_MIP_Cuts_LiftProj-CPXPARAM_MIP_Cuts_Covers-CPXPARAM_MIP_Cuts_FlowCovers 2
Instance99
CPXPARAM_MIP_Cuts_CPXPARAM_MIP_Cuts_Gomory-CPXPARAM_MIP_Cuts_Disjunctive-CPXPARAM_MIP_Cuts_LiftProj-CPXPARAM_MIP_Cuts_Covers-CPXPARAM_MIP_Cuts_FlowCovers 2
Instance100
Gap


0.00%
CPXPARAM_MIP_Cuts_CPXPARAM_MIP_Cuts_Gomory-CPXPARAM_MIP_Cuts_Disjunctive-CPXPARAM_MIP_Cuts_LiftProj-CPXPARAM_MIP_Cuts_Covers-CPXPARAM_MIP_Cuts_FlowCovers 0
Instance101
CPXPARAM_MIP_Cuts_CPXPARAM_MIP_Cuts_Gomory-CPXPARAM_MIP_Cuts_Disjunctive-CPXPARAM_MIP_Cuts_LiftProj-CPXPARAM_MIP_Cuts_Covers-CPXPARAM_MIP_Cuts_FlowCovers 0
Instance102
CPXPARAM_MIP_Cuts_CPXPARAM_MIP_Cuts_Gomory-CPXPARAM_MIP_Cuts_Disjunctive-CPXPARAM_MIP_Cuts_LiftProj-CPXPARAM_MIP_Cuts_Covers-CPXPARAM_MIP_Cuts_FlowCovers 0
Instance103
CPXPARAM_MIP_Cuts_CPXPARAM_MIP_Cuts_Gomory-CPXPARAM_MIP_Cuts_Disjunctive-CPXPARAM_MIP_Cuts_LiftProj-CPXPARAM_MIP_Cuts_Covers-CPXPARAM_MIP_Cuts_FlowCovers 0
Instance104
CPXPARAM_MIP_Cuts_CPXPARAM_MIP_Cuts_Gomory-CPXPARAM_MIP_Cuts_Disjunctive-CPXPARAM_MIP_Cuts_LiftProj-CPXPARAM_MIP_Cuts_Covers-CPXPARAM_MIP_Cuts_FlowCovers 0
Instance105
Gap



23.55%
21.89%
12.55%
12.55%
6.52%
5.09%
0
CPXPARAM_MIP_Cuts_CPXPARAM_MIP_Cuts_Gomory-CPXPARAM_MIP_Cuts_Disjunctive-CPXPARAM_MIP_Cuts_LiftProj-CPXPARAM_MIP_Cuts_Covers-CPXPARAM_MIP_Cuts_FlowCovers 0
Instance106
CPXPARAM_MIP_Cuts_CPXPARAM_MIP_Cuts_Gomory-CPXPARAM_MIP_Cuts_Disjunctive-CPXPARAM_MIP_Cuts_LiftProj-CPXPARAM_MIP_Cuts_Covers-CPXPARAM_MIP_Cuts_FlowCovers 0
Instance107
CPXPARAM_MIP_Cuts_CPXPARAM_MIP_Cuts_Gomory-CPXPARAM_MIP_Cuts_Disjunctive-CPXPARAM_MIP_Cuts_LiftProj-CPXPARAM_MIP_Cuts_Covers-CPXPARAM_MIP_Cuts_FlowCovers 0
Instance108
CPXPARAM_MIP_Cuts_CPXPARAM_MIP_Cuts_Gomory-CPXPARAM_MIP_Cuts_Disjunctive-CPXPARAM_MIP_Cuts_LiftProj-CPXPARAM_MIP_Cuts_Covers-CPXPARAM_MIP_Cuts_FlowCovers 0
Instance109
CPXPARAM_MIP_Cuts_CPXPARAM_MIP_Cuts_Gomory-CPXPARAM_MIP_Cuts_Disjunctive-CPXPARAM_MIP_Cuts_LiftProj-CPXPARAM_MIP_Cuts_Covers-CPXPARAM_MIP_Cuts_FlowCovers 1
Instance110
Gap

0.39%
0.39%
0.39%
0.39%
0.39%
0.09%
0.04%
0.00%
CPXPARAM_MIP_Cuts_CPXPARAM_MIP_Cuts_Gomory-CPXPARAM_MIP_Cuts_Disjunctive-CPXPARAM_MIP_Cuts_LiftProj-CPXPARAM_MIP_Cuts_Covers-CPXPARAM_MIP_Cuts_FlowCovers 0
Instance111
CPXPARAM_MIP_Cuts_CPXPARAM_MIP_Cuts_Gomory-CPXPARAM_MIP_Cuts_Disjunctive-CPXPARAM_MIP_Cuts_LiftProj-CPXPARAM_MIP_Cuts_Covers-CPXPARAM_MIP_Cuts_FlowCovers 0
Instance112
CPXPARAM_MIP_Cuts_CPXPARAM_MIP_Cuts_Gomory-CPXPARAM_MIP_Cuts_Disjunctive-CPXPARAM_MIP_Cuts_LiftProj-CPXPARAM_MIP_Cuts_Covers-CPXPARAM_MIP_Cuts_FlowCovers 1
Instance113
CPXPARAM_MIP_Cuts_CPXPARAM_MIP_Cuts_Gomory-CPXPARAM_MIP_Cuts_Disjunctive-CPXPARAM_MIP_Cuts_LiftProj-CPXPARAM_MIP_Cuts_Covers-CPXPARAM_MIP_Cuts_FlowCovers 0
Instance114
CPXPARAM_MIP_Cuts_CPXPARAM_MIP_Cuts_Gomory-CPXPARAM_MIP_Cuts_Disjunctive-CPXPARAM_MIP_Cuts_LiftProj-CPXPARAM_MIP_Cuts_Covers-CPXPARAM_MIP_Cuts_FlowCovers 1
Instance115
Gap

3.15%
3.15%
3.15%
3.10%
0
CPXPARAM_MIP_Cuts_CPXPARAM_MIP_Cuts_Gomory-CPXPARAM_MIP_Cuts_Disjunctive-CPXPARAM_MIP_Cuts_LiftProj-CPXPARAM_MIP_Cuts_Covers-CPXPARAM_MIP_Cuts_FlowCovers 0
Instance116
CPXPARAM_MIP_Cuts_CPXPARAM_MIP_Cuts_Gomory-CPXPARAM_MIP_Cuts_Disjunctive-CPXPARAM_MIP_Cuts_LiftProj-CPXPARAM_MIP_Cuts_Covers-CPXPARAM_MIP_Cuts_FlowCovers 0
Instance117
CPXPARAM_MIP_Cuts_CPXPARAM_MIP_Cuts_Gomory-CPXPARAM_MIP_Cuts_Disjunctive-CPXPARAM_MIP_Cuts_LiftProj-CPXPARAM_MIP_Cuts_Covers-CPXPARAM_MIP_Cuts_FlowCovers 0
Instance118
CPXPARAM_MIP_Cuts_CPXPARAM_MIP_Cuts_Gomory-CPXPARAM_MIP_Cuts_Disjunctive-CPXPARAM_MIP_Cuts_LiftProj-CPXPARAM_MIP_Cuts_Covers-CPXPARAM_MIP_Cuts_FlowCovers 1
Instance119
CPXPARAM_MIP_Cuts_CPXPARAM_MIP_Cuts_Gomory-CPXPARAM_MIP_Cuts_Disjunctive-CPXPARAM_MIP_Cuts_LiftProj-CPXPARAM_MIP_Cuts_Covers-CPXPARAM_MIP_Cuts_FlowCovers 0
Instance120
Gap

10.00%
9.58%
7.36%
7.36%
7.36%
6.65%
6.17%
5.41%
5.17%
5.06%
5.05%
5.01%
4.97%
4.74%
4.57%
3.63%
3.42%
3.07%
2.25%
1.96%
1.96%
0
CPXPARAM_MIP_Cuts_CPXPARAM_MIP_Cuts_Gomory-CPXPARAM_MIP_Cuts_Disjunctive-CPXPARAM_MIP_Cuts_LiftProj-CPXPARAM_MIP_Cuts_Covers-CPXPARAM_MIP_Cuts_FlowCovers 0
Instance121
CPXPARAM_MIP_Cuts_CPXPARAM_MIP_Cuts_Gomory-CPXPARAM_MIP_Cuts_Disjunctive-CPXPARAM_MIP_Cuts_LiftProj-CPXPARAM_MIP_Cuts_Covers-CPXPARAM_MIP_Cuts_FlowCovers 0
Instance122
CPXPARAM_MIP_Cuts_CPXPARAM_MIP_Cuts_Gomory-CPXPARAM_MIP_Cuts_Disjunctive-CPXPARAM_MIP_Cuts_LiftProj-CPXPARAM_MIP_Cuts_Covers-CPXPARAM_MIP_Cuts_FlowCovers 8
Instance123
CPXPARAM_MIP_Cuts_CPXPARAM_MIP_Cuts_Gomory-CPXPARAM_MIP_Cuts_Disjunctive-CPXPARAM_MIP_Cuts_LiftProj-CPXPARAM_MIP_Cuts_Covers-CPXPARAM_MIP_Cuts_FlowCovers 0
Instance124
CPXPARAM_MIP_Cuts_CPXPARAM_MIP_Cuts_Gomory-CPXPARAM_MIP_Cuts_Disjunctive-CPXPARAM_MIP_Cuts_LiftProj-CPXPARAM_MIP_Cuts_Covers-CPXPARAM_MIP_Cuts_FlowCovers 0
Instance125
Gap



0.00%
CPXPARAM_MIP_Cuts_CPXPARAM_MIP_Cuts_Gomory-CPXPARAM_MIP_Cuts_Disjunctive-CPXPARAM_MIP_Cuts_LiftProj-CPXPARAM_MIP_Cuts_Covers-CPXPARAM_MIP_Cuts_FlowCovers 0
Instance126
CPXPARAM_MIP_Cuts_CPXPARAM_MIP_Cuts_Gomory-CPXPARAM_MIP_Cuts_Disjunctive-CPXPARAM_MIP_Cuts_LiftProj-CPXPARAM_MIP_Cuts_Covers-CPXPARAM_MIP_Cuts_FlowCovers 0
Instance127
CPXPARAM_MIP_Cuts_CPXPARAM_MIP_Cuts_Gomory-CPXPARAM_MIP_Cuts_Disjunctive-CPXPARAM_MIP_Cuts_LiftProj-CPXPARAM_MIP_Cuts_Covers-CPXPARAM_MIP_Cuts_FlowCovers 0
Instance128
CPXPARAM_MIP_Cuts_CPXPARAM_MIP_Cuts_Gomory-CPXPARAM_MIP_Cuts_Disjunctive-CPXPARAM_MIP_Cuts_LiftProj-CPXPARAM_MIP_Cuts_Covers-CPXPARAM_MIP_Cuts_FlowCovers 0
Instance129
CPXPARAM_MIP_Cuts_CPXPARAM_MIP_Cuts_Gomory-CPXPARAM_MIP_Cuts_Disjunctive-CPXPARAM_MIP_Cuts_LiftProj-CPXPARAM_MIP_Cuts_Covers-CPXPARAM_MIP_Cuts_FlowCovers 0
Instance130
Gap
0.00%
CPXPARAM_MIP_Cuts_CPXPARAM_MIP_Cuts_Gomory-CPXPARAM_MIP_Cuts_Disjunctive-CPXPARAM_MIP_Cuts_LiftProj-CPXPARAM_MIP_Cuts_Covers-CPXPARAM_MIP_Cuts_FlowCovers 0
Instance131
CPXPARAM_MIP_Cuts_CPXPARAM_MIP_Cuts_Gomory-CPXPARAM_MIP_Cuts_Disjunctive-CPXPARAM_MIP_Cuts_LiftProj-CPXPARAM_MIP_Cuts_Covers-CPXPARAM_MIP_Cuts_FlowCovers 0
Instance132
CPXPARAM_MIP_Cuts_CPXPARAM_MIP_Cuts_Gomory-CPXPARAM_MIP_Cuts_Disjunctive-CPXPARAM_MIP_Cuts_LiftProj-CPXPARAM_MIP_Cuts_Covers-CPXPARAM_MIP_Cuts_FlowCovers 0
Instance133
CPXPARAM_MIP_Cuts_CPXPARAM_MIP_Cuts_Gomory-CPXPARAM_MIP_Cuts_Disjunctive-CPXPARAM_MIP_Cuts_LiftProj-CPXPARAM_MIP_Cuts_Covers-CPXPARAM_MIP_Cuts_FlowCovers 0
Instance134
CPXPARAM_MIP_Cuts_CPXPARAM_MIP_Cuts_Gomory-CPXPARAM_MIP_Cuts_Disjunctive-CPXPARAM_MIP_Cuts_LiftProj-CPXPARAM_MIP_Cuts_Covers-CPXPARAM_MIP_Cuts_FlowCovers 0
Instance135
Gap

0.42%
0.42%
0.42%
0.42%
0.42%
0.02%
CPXPARAM_MIP_Cuts_CPXPARAM_MIP_Cuts_Gomory-CPXPARAM_MIP_Cuts_Disjunctive-CPXPARAM_MIP_Cuts_LiftProj-CPXPARAM_MIP_Cuts_Covers-CPXPARAM_MIP_Cuts_FlowCovers 0
Instance136
CPXPARAM_MIP_Cuts_CPXPARAM_MIP_Cuts_Gomory-CPXPARAM_MIP_Cuts_Disjunctive-CPXPARAM_MIP_Cuts_LiftProj-CPXPARAM_MIP_Cuts_Covers-CPXPARAM_MIP_Cuts_FlowCovers 0
Instance137
CPXPARAM_MIP_Cuts_CPXPARAM_MIP_Cuts_Gomory-CPXPARAM_MIP_Cuts_Disjunctive-CPXPARAM_MIP_Cuts_LiftProj-CPXPARAM_MIP_Cuts_Covers-CPXPARAM_MIP_Cuts_FlowCovers 0
Instance138
CPXPARAM_MIP_Cuts_CPXPARAM_MIP_Cuts_Gomory-CPXPARAM_MIP_Cuts_Disjunctive-CPXPARAM_MIP_Cuts_LiftProj-CPXPARAM_MIP_Cuts_Covers-CPXPARAM_MIP_Cuts_FlowCovers 1
Instance139
CPXPARAM_MIP_Cuts_CPXPARAM_MIP_Cuts_Gomory-CPXPARAM_MIP_Cuts_Disjunctive-CPXPARAM_MIP_Cuts_LiftProj-CPXPARAM_MIP_Cuts_Covers-CPXPARAM_MIP_Cuts_FlowCovers 1
Instance140
Gap





2.98%
2.98%
2.98%
2.96%
2.88%
2.85%
CPXPARAM_MIP_Cuts_CPXPARAM_MIP_Cuts_Gomory-CPXPARAM_MIP_Cuts_Disjunctive-CPXPARAM_MIP_Cuts_LiftProj-CPXPARAM_MIP_Cuts_Covers-CPXPARAM_MIP_Cuts_FlowCovers 2
Instance141
CPXPARAM_MIP_Cuts_CPXPARAM_MIP_Cuts_Gomory-CPXPARAM_MIP_Cuts_Disjunctive-CPXPARAM_MIP_Cuts_LiftProj-CPXPARAM_MIP_Cuts_Covers-CPXPARAM_MIP_Cuts_FlowCovers 0
Instance142
CPXPARAM_MIP_Cuts_CPXPARAM_MIP_Cuts_Gomory-CPXPARAM_MIP_Cuts_Disjunctive-CPXPARAM_MIP_Cuts_LiftProj-CPXPARAM_MIP_Cuts_Covers-CPXPARAM_MIP_Cuts_FlowCovers 1
Instance143
CPXPARAM_MIP_Cuts_CPXPARAM_MIP_Cuts_Gomory-CPXPARAM_MIP_Cuts_Disjunctive-CPXPARAM_MIP_Cuts_LiftProj-CPXPARAM_MIP_Cuts_Covers-CPXPARAM_MIP_Cuts_FlowCovers 0
Instance144
CPXPARAM_MIP_Cuts_CPXPARAM_MIP_Cuts_Gomory-CPXPARAM_MIP_Cuts_Disjunctive-CPXPARAM_MIP_Cuts_LiftProj-CPXPARAM_MIP_Cuts_Covers-CPXPARAM_MIP_Cuts_FlowCovers 0
Instance145
Gap
111.49%
406.57%
82.87%
81.66%
79.43%
78.61%
77.93%
77.73%
77.69%
77.13%
75.43%
75.34%
75.27%
74.93%
74.84%
74.36%
73.92%
73.54%
73.20%
73.18%
71.83%
71.13%
70.75%
70.63%
32.06%
32.06%
32.06%
31.92%
28.47%
28.20%
27.63%
27.03%
26.94%
26.53%
24.57%
23.64%
22.94%
22.83%
22.55%
22.38%
22.30%
22.14%
22.00%
21.99%
21.84%
21.54%
21.52%
21.50%
21.50%
15.07%
CPXPARAM_MIP_Cuts_CPXPARAM_MIP_Cuts_Gomory-CPXPARAM_MIP_Cuts_Disjunctive-CPXPARAM_MIP_Cuts_LiftProj-CPXPARAM_MIP_Cuts_Covers-CPXPARAM_MIP_Cuts_FlowCovers 0
Instance146
CPXPARAM_MIP_Cuts_CPXPARAM_MIP_Cuts_Gomory-CPXPARAM_MIP_Cuts_Disjunctive-CPXPARAM_MIP_Cuts_LiftProj-CPXPARAM_MIP_Cuts_Covers-CPXPARAM_MIP_Cuts_FlowCovers 0
Instance147
CPXPARAM_MIP_Cuts_CPXPARAM_MIP_Cuts_Gomory-CPXPARAM_MIP_Cuts_Disjunctive-CPXPARAM_MIP_Cuts_LiftProj-CPXPARAM_MIP_Cuts_Covers-CPXPARAM_MIP_Cuts_FlowCovers 19
Instance148
CPXPARAM_MIP_Cuts_CPXPARAM_MIP_Cuts_Gomory-CPXPARAM_MIP_Cuts_Disjunctive-CPXPARAM_MIP_Cuts_LiftProj-CPXPARAM_MIP_Cuts_Covers-CPXPARAM_MIP_Cuts_FlowCovers 2
Instance149
CPXPARAM_MIP_Cuts_CPXPARAM_MIP_Cuts_Gomory-CPXPARAM_MIP_Cuts_Disjunctive-CPXPARAM_MIP_Cuts_LiftProj-CPXPARAM_MIP_Cuts_Covers-CPXPARAM_MIP_Cuts_FlowCovers 0
Instance150
Gap
120.75%
227.70%
17.33%
17.33%
17.33%
17.33%
CPXPARAM_MIP_Cuts_CPXPARAM_MIP_Cuts_Gomory-CPXPARAM_MIP_Cuts_Disjunctive-CPXPARAM_MIP_Cuts_LiftProj-CPXPARAM_MIP_Cuts_Covers-CPXPARAM_MIP_Cuts_FlowCovers 0
Instance151
CPXPARAM_MIP_Cuts_CPXPARAM_MIP_Cuts_Gomory-CPXPARAM_MIP_Cuts_Disjunctive-CPXPARAM_MIP_Cuts_LiftProj-CPXPARAM_MIP_Cuts_Covers-CPXPARAM_MIP_Cuts_FlowCovers 0
Instance152
CPXPARAM_MIP_Cuts_CPXPARAM_MIP_Cuts_Gomory-CPXPARAM_MIP_Cuts_Disjunctive-CPXPARAM_MIP_Cuts_LiftProj-CPXPARAM_MIP_Cuts_Covers-CPXPARAM_MIP_Cuts_FlowCovers 2
Instance153
CPXPARAM_MIP_Cuts_CPXPARAM_MIP_Cuts_Gomory-CPXPARAM_MIP_Cuts_Disjunctive-CPXPARAM_MIP_Cuts_LiftProj-CPXPARAM_MIP_Cuts_Covers-CPXPARAM_MIP_Cuts_FlowCovers 3
Instance154
CPXPARAM_MIP_Cuts_CPXPARAM_MIP_Cuts_Gomory-CPXPARAM_MIP_Cuts_Disjunctive-CPXPARAM_MIP_Cuts_LiftProj-CPXPARAM_MIP_Cuts_Covers-CPXPARAM_MIP_Cuts_FlowCovers 0
Instance155
Gap

5.20%
5.20%
5.20%
5.20%
5.20%
0.00%
CPXPARAM_MIP_Cuts_CPXPARAM_MIP_Cuts_Gomory-CPXPARAM_MIP_Cuts_Disjunctive-CPXPARAM_MIP_Cuts_LiftProj-CPXPARAM_MIP_Cuts_Covers-CPXPARAM_MIP_Cuts_FlowCovers 0
Instance156
CPXPARAM_MIP_Cuts_CPXPARAM_MIP_Cuts_Gomory-CPXPARAM_MIP_Cuts_Disjunctive-CPXPARAM_MIP_Cuts_LiftProj-CPXPARAM_MIP_Cuts_Covers-CPXPARAM_MIP_Cuts_FlowCovers 0
Instance157
CPXPARAM_MIP_Cuts_CPXPARAM_MIP_Cuts_Gomory-CPXPARAM_MIP_Cuts_Disjunctive-CPXPARAM_MIP_Cuts_LiftProj-CPXPARAM_MIP_Cuts_Covers-CPXPARAM_MIP_Cuts_FlowCovers 0
Instance158
CPXPARAM_MIP_Cuts_CPXPARAM_MIP_Cuts_Gomory-CPXPARAM_MIP_Cuts_Disjunctive-CPXPARAM_MIP_Cuts_LiftProj-CPXPARAM_MIP_Cuts_Covers-CPXPARAM_MIP_Cuts_FlowCovers 2
Instance159
CPXPARAM_MIP_Cuts_CPXPARAM_MIP_Cuts_Gomory-CPXPARAM_MIP_Cuts_Disjunctive-CPXPARAM_MIP_Cuts_LiftProj-CPXPARAM_MIP_Cuts_Covers-CPXPARAM_MIP_Cuts_FlowCovers 0
Instance160
Gap




4.71%
4.71%
4.71%
4.26%
3.67%
3.40%
3.29%
3.09%
2.39%
2.38%
1.74%
1.74%
1.46%
0
CPXPARAM_MIP_Cuts_CPXPARAM_MIP_Cuts_Gomory-CPXPARAM_MIP_Cuts_Disjunctive-CPXPARAM_MIP_Cuts_LiftProj-CPXPARAM_MIP_Cuts_Covers-CPXPARAM_MIP_Cuts_FlowCovers 0
Instance161
CPXPARAM_MIP_Cuts_CPXPARAM_MIP_Cuts_Gomory-CPXPARAM_MIP_Cuts_Disjunctive-CPXPARAM_MIP_Cuts_LiftProj-CPXPARAM_MIP_Cuts_Covers-CPXPARAM_MIP_Cuts_FlowCovers 0
Instance162
CPXPARAM_MIP_Cuts_CPXPARAM_MIP_Cuts_Gomory-CPXPARAM_MIP_Cuts_Disjunctive-CPXPARAM_MIP_Cuts_LiftProj-CPXPARAM_MIP_Cuts_Covers-CPXPARAM_MIP_Cuts_FlowCovers 5
Instance163
CPXPARAM_MIP_Cuts_CPXPARAM_MIP_Cuts_Gomory-CPXPARAM_MIP_Cuts_Disjunctive-CPXPARAM_MIP_Cuts_LiftProj-CPXPARAM_MIP_Cuts_Covers-CPXPARAM_MIP_Cuts_FlowCovers 0
Instance164
CPXPARAM_MIP_Cuts_CPXPARAM_MIP_Cuts_Gomory-CPXPARAM_MIP_Cuts_Disjunctive-CPXPARAM_MIP_Cuts_LiftProj-CPXPARAM_MIP_Cuts_Covers-CPXPARAM_MIP_Cuts_FlowCovers 0
Instance165
Gap



36.81%
0
CPXPARAM_MIP_Cuts_CPXPARAM_MIP_Cuts_Gomory-CPXPARAM_MIP_Cuts_Disjunctive-CPXPARAM_MIP_Cuts_LiftProj-CPXPARAM_MIP_Cuts_Covers-CPXPARAM_MIP_Cuts_FlowCovers 0
Instance166
CPXPARAM_MIP_Cuts_CPXPARAM_MIP_Cuts_Gomory-CPXPARAM_MIP_Cuts_Disjunctive-CPXPARAM_MIP_Cuts_LiftProj-CPXPARAM_MIP_Cuts_Covers-CPXPARAM_MIP_Cuts_FlowCovers 0
Instance167
CPXPARAM_MIP_Cuts_CPXPARAM_MIP_Cuts_Gomory-CPXPARAM_MIP_Cuts_Disjunctive-CPXPARAM_MIP_Cuts_LiftProj-CPXPARAM_MIP_Cuts_Covers-CPXPARAM_MIP_Cuts_FlowCovers 0
Instance168
CPXPARAM_MIP_Cuts_CPXPARAM_MIP_Cuts_Gomory-CPXPARAM_MIP_Cuts_Disjunctive-CPXPARAM_MIP_Cuts_LiftProj-CPXPARAM_MIP_Cuts_Covers-CPXPARAM_MIP_Cuts_FlowCovers 1
Instance169
CPXPARAM_MIP_Cuts_CPXPARAM_MIP_Cuts_Gomory-CPXPARAM_MIP_Cuts_Disjunctive-CPXPARAM_MIP_Cuts_LiftProj-CPXPARAM_MIP_Cuts_Covers-CPXPARAM_MIP_Cuts_FlowCovers 3
Instance170
Gap

0.14%
0
CPXPARAM_MIP_Cuts_CPXPARAM_MIP_Cuts_Gomory-CPXPARAM_MIP_Cuts_Disjunctive-CPXPARAM_MIP_Cuts_LiftProj-CPXPARAM_MIP_Cuts_Covers-CPXPARAM_MIP_Cuts_FlowCovers 0
Instance171
CPXPARAM_MIP_Cuts_CPXPARAM_MIP_Cuts_Gomory-CPXPARAM_MIP_Cuts_Disjunctive-CPXPARAM_MIP_Cuts_LiftProj-CPXPARAM_MIP_Cuts_Covers-CPXPARAM_MIP_Cuts_FlowCovers 0
Instance172
CPXPARAM_MIP_Cuts_CPXPARAM_MIP_Cuts_Gomory-CPXPARAM_MIP_Cuts_Disjunctive-CPXPARAM_MIP_Cuts_LiftProj-CPXPARAM_MIP_Cuts_Covers-CPXPARAM_MIP_Cuts_FlowCovers 0
Instance173
CPXPARAM_MIP_Cuts_CPXPARAM_MIP_Cuts_Gomory-CPXPARAM_MIP_Cuts_Disjunctive-CPXPARAM_MIP_Cuts_LiftProj-CPXPARAM_MIP_Cuts_Covers-CPXPARAM_MIP_Cuts_FlowCovers 0
Instance174
CPXPARAM_MIP_Cuts_CPXPARAM_MIP_Cuts_Gomory-CPXPARAM_MIP_Cuts_Disjunctive-CPXPARAM_MIP_Cuts_LiftProj-CPXPARAM_MIP_Cuts_Covers-CPXPARAM_MIP_Cuts_FlowCovers 0
Instance175
Gap

2.41%
2.41%
2.41%
2.35%
0
CPXPARAM_MIP_Cuts_CPXPARAM_MIP_Cuts_Gomory-CPXPARAM_MIP_Cuts_Disjunctive-CPXPARAM_MIP_Cuts_LiftProj-CPXPARAM_MIP_Cuts_Covers-CPXPARAM_MIP_Cuts_FlowCovers 0
Instance176
CPXPARAM_MIP_Cuts_CPXPARAM_MIP_Cuts_Gomory-CPXPARAM_MIP_Cuts_Disjunctive-CPXPARAM_MIP_Cuts_LiftProj-CPXPARAM_MIP_Cuts_Covers-CPXPARAM_MIP_Cuts_FlowCovers 0
Instance177
CPXPARAM_MIP_Cuts_CPXPARAM_MIP_Cuts_Gomory-CPXPARAM_MIP_Cuts_Disjunctive-CPXPARAM_MIP_Cuts_LiftProj-CPXPARAM_MIP_Cuts_Covers-CPXPARAM_MIP_Cuts_FlowCovers 0
Instance178
CPXPARAM_MIP_Cuts_CPXPARAM_MIP_Cuts_Gomory-CPXPARAM_MIP_Cuts_Disjunctive-CPXPARAM_MIP_Cuts_LiftProj-CPXPARAM_MIP_Cuts_Covers-CPXPARAM_MIP_Cuts_FlowCovers 1
Instance179
CPXPARAM_MIP_Cuts_CPXPARAM_MIP_Cuts_Gomory-CPXPARAM_MIP_Cuts_Disjunctive-CPXPARAM_MIP_Cuts_LiftProj-CPXPARAM_MIP_Cuts_Covers-CPXPARAM_MIP_Cuts_FlowCovers 0
Instance180
Gap



6.99%
6.99%
6.99%
6.42%
6.14%
5.74%
4.98%
4.88%
3.85%
3.43%
1.70%
1.70%
0.59%
0.59%
0
CPXPARAM_MIP_Cuts_CPXPARAM_MIP_Cuts_Gomory-CPXPARAM_MIP_Cuts_Disjunctive-CPXPARAM_MIP_Cuts_LiftProj-CPXPARAM_MIP_Cuts_Covers-CPXPARAM_MIP_Cuts_FlowCovers 0
Instance181
CPXPARAM_MIP_Cuts_CPXPARAM_MIP_Cuts_Gomory-CPXPARAM_MIP_Cuts_Disjunctive-CPXPARAM_MIP_Cuts_LiftProj-CPXPARAM_MIP_Cuts_Covers-CPXPARAM_MIP_Cuts_FlowCovers 0
Instance182
CPXPARAM_MIP_Cuts_CPXPARAM_MIP_Cuts_Gomory-CPXPARAM_MIP_Cuts_Disjunctive-CPXPARAM_MIP_Cuts_LiftProj-CPXPARAM_MIP_Cuts_Covers-CPXPARAM_MIP_Cuts_FlowCovers 2
Instance183
CPXPARAM_MIP_Cuts_CPXPARAM_MIP_Cuts_Gomory-CPXPARAM_MIP_Cuts_Disjunctive-CPXPARAM_MIP_Cuts_LiftProj-CPXPARAM_MIP_Cuts_Covers-CPXPARAM_MIP_Cuts_FlowCovers 2
Instance184
CPXPARAM_MIP_Cuts_CPXPARAM_MIP_Cuts_Gomory-CPXPARAM_MIP_Cuts_Disjunctive-CPXPARAM_MIP_Cuts_LiftProj-CPXPARAM_MIP_Cuts_Covers-CPXPARAM_MIP_Cuts_FlowCovers 0
Instance185
Gap


















59.05%
57.07%
54.72%
52.45%
50.61%
49.85%
48.13%
46.01%
45.95%
45.35%
45.31%
45.03%
45.02%
44.09%
43.68%
42.87%
42.57%
42.38%
41.89%
41.85%
41.79%
41.69%
41.69%
33.20%
CPXPARAM_MIP_Cuts_CPXPARAM_MIP_Cuts_Gomory-CPXPARAM_MIP_Cuts_Disjunctive-CPXPARAM_MIP_Cuts_LiftProj-CPXPARAM_MIP_Cuts_Covers-CPXPARAM_MIP_Cuts_FlowCovers 0
Instance186
CPXPARAM_MIP_Cuts_CPXPARAM_MIP_Cuts_Gomory-CPXPARAM_MIP_Cuts_Disjunctive-CPXPARAM_MIP_Cuts_LiftProj-CPXPARAM_MIP_Cuts_Covers-CPXPARAM_MIP_Cuts_FlowCovers 0
Instance187
CPXPARAM_MIP_Cuts_CPXPARAM_MIP_Cuts_Gomory-CPXPARAM_MIP_Cuts_Disjunctive-CPXPARAM_MIP_Cuts_LiftProj-CPXPARAM_MIP_Cuts_Covers-CPXPARAM_MIP_Cuts_FlowCovers 24
Instance188
CPXPARAM_MIP_Cuts_CPXPARAM_MIP_Cuts_Gomory-CPXPARAM_MIP_Cuts_Disjunctive-CPXPARAM_MIP_Cuts_LiftProj-CPXPARAM_MIP_Cuts_Covers-CPXPARAM_MIP_Cuts_FlowCovers 0
Instance189
CPXPARAM_MIP_Cuts_CPXPARAM_MIP_Cuts_Gomory-CPXPARAM_MIP_Cuts_Disjunctive-CPXPARAM_MIP_Cuts_LiftProj-CPXPARAM_MIP_Cuts_Covers-CPXPARAM_MIP_Cuts_FlowCovers 1
Instance190
Gap

0.21%
0.21%
0.21%
0.21%
0
CPXPARAM_MIP_Cuts_CPXPARAM_MIP_Cuts_Gomory-CPXPARAM_MIP_Cuts_Disjunctive-CPXPARAM_MIP_Cuts_LiftProj-CPXPARAM_MIP_Cuts_Covers-CPXPARAM_MIP_Cuts_FlowCovers 0
Instance191
CPXPARAM_MIP_Cuts_CPXPARAM_MIP_Cuts_Gomory-CPXPARAM_MIP_Cuts_Disjunctive-CPXPARAM_MIP_Cuts_LiftProj-CPXPARAM_MIP_Cuts_Covers-CPXPARAM_MIP_Cuts_FlowCovers 0
Instance192
CPXPARAM_MIP_Cuts_CPXPARAM_MIP_Cuts_Gomory-CPXPARAM_MIP_Cuts_Disjunctive-CPXPARAM_MIP_Cuts_LiftProj-CPXPARAM_MIP_Cuts_Covers-CPXPARAM_MIP_Cuts_FlowCovers 0
Instance193
CPXPARAM_MIP_Cuts_CPXPARAM_MIP_Cuts_Gomory-CPXPARAM_MIP_Cuts_Disjunctive-CPXPARAM_MIP_Cuts_LiftProj-CPXPARAM_MIP_Cuts_Covers-CPXPARAM_MIP_Cuts_FlowCovers 1
Instance194
CPXPARAM_MIP_Cuts_CPXPARAM_MIP_Cuts_Gomory-CPXPARAM_MIP_Cuts_Disjunctive-CPXPARAM_MIP_Cuts_LiftProj-CPXPARAM_MIP_Cuts_Covers-CPXPARAM_MIP_Cuts_FlowCovers 1
Instance195
Gap


0.50%
0.50%
0.50%
0
CPXPARAM_MIP_Cuts_CPXPARAM_MIP_Cuts_Gomory-CPXPARAM_MIP_Cuts_Disjunctive-CPXPARAM_MIP_Cuts_LiftProj-CPXPARAM_MIP_Cuts_Covers-CPXPARAM_MIP_Cuts_FlowCovers 0
Instance196
CPXPARAM_MIP_Cuts_CPXPARAM_MIP_Cuts_Gomory-CPXPARAM_MIP_Cuts_Disjunctive-CPXPARAM_MIP_Cuts_LiftProj-CPXPARAM_MIP_Cuts_Covers-CPXPARAM_MIP_Cuts_FlowCovers 0
Instance197
CPXPARAM_MIP_Cuts_CPXPARAM_MIP_Cuts_Gomory-CPXPARAM_MIP_Cuts_Disjunctive-CPXPARAM_MIP_Cuts_LiftProj-CPXPARAM_MIP_Cuts_Covers-CPXPARAM_MIP_Cuts_FlowCovers 0
Instance198
CPXPARAM_MIP_Cuts_CPXPARAM_MIP_Cuts_Gomory-CPXPARAM_MIP_Cuts_Disjunctive-CPXPARAM_MIP_Cuts_LiftProj-CPXPARAM_MIP_Cuts_Covers-CPXPARAM_MIP_Cuts_FlowCovers 0
Instance199
CPXPARAM_MIP_Cuts_CPXPARAM_MIP_Cuts_Gomory-CPXPARAM_MIP_Cuts_Disjunctive-CPXPARAM_MIP_Cuts_LiftProj-CPXPARAM_MIP_Cuts_Covers-CPXPARAM_MIP_Cuts_FlowCovers 0
